% Logging successfully configured
%%%mzn-stat: initTime=0.02824609
%%%mzn-stat: objective=918
%%%mzn-stat: nodes=7734
%%%mzn-stat: restarts=0
%%%mzn-stat: peakDepth=173
%%%mzn-stat: solveTime=1.220177743
%%%mzn-stat: variables=469
%%%mzn-stat: propagators=1520
%%%mzn-stat: failures=7269
%%%mzn-stat: propagations=3932912
%%%mzn-stat: nogoods=7269
%%%mzn-stat: numAtomicConstraintsPropagated=0
%%%mzn-stat: circuitNumber1226PropagationsThatFoundConflict=989
%%%mzn-stat: circuitNumber1226TotalFixedEdgesAtConflict=35283
%%%mzn-stat: circuitNumber1226NumberOfConflicts=989
%%%mzn-stat: circuitNumber1226PropagationsThatPruned=3892
%%%mzn-stat: circuitNumber1226PropagationsTotal=9242
%%%mzn-stat: AverageConflictSize=9.070573669005364
%%%mzn-stat: NumUnitNogoodsLearned=0
%%%mzn-stat: AverageLearnedNogoodLength=16.39661576557986
%%%mzn-stat: AverageBacktrackAmount=0
%%%mzn-stat: AverageLbd=7.899573531434861
%%%mzn-stat: 2AutonomousSearchNumBackupCalled=161
%%%mzn-stat: 2AutonomousSearchNumPredicatesRemoved=0
%%%mzn-stat: 2AutonomousSearchNumCalls=162
%%%mzn-stat: 2AutonomousSearchNumPredicatesAdded=2973
%%%mzn-stat: 2AutonomousSearchAverageSizeOfHeap=18.35185185185185
%%%mzn-stat: 2AutonomousSearchNumAssignedPredicatesEncountered=2973
%%%mzn-stat-end
maxleg = 918;
succ = array1d(1..50,[21, 7, 32, 27, 39, 9, 22, 46, 13, 45, 31, 37, 44, 29, 40, 17, 24, 19, 33, 23, 41, 16, 50, 20, 15, 49, 38, 42, 2, 4, 35, 47, 11, 18, 26, 25, 8, 43, 30, 48, 3, 12, 10, 36, 28, 14, 5, 34, 1, 6]);
% time elapsed: 13.58 s
----------
==========
% time elapsed: 17.40 s
%%%mzn-stat: initTime=0.02824609
%%%mzn-stat: objective=918
%%%mzn-stat: nodes=27408
%%%mzn-stat: restarts=0
%%%mzn-stat: peakDepth=173
%%%mzn-stat: solveTime=5.059690991
%%%mzn-stat: variables=469
%%%mzn-stat: propagators=1520
%%%mzn-stat: failures=26382
%%%mzn-stat: propagations=14756184
%%%mzn-stat: nogoods=26382
%%%mzn-stat: numAtomicConstraintsPropagated=0
%%%mzn-stat: circuitNumber1226PropagationsThatFoundConflict=2193
%%%mzn-stat: circuitNumber1226TotalFixedEdgesAtConflict=62803
%%%mzn-stat: circuitNumber1226NumberOfConflicts=2193
%%%mzn-stat: circuitNumber1226PropagationsThatPruned=15423
%%%mzn-stat: circuitNumber1226PropagationsTotal=34272
%%%mzn-stat: AverageConflictSize=7.423091501781518
%%%mzn-stat: NumUnitNogoodsLearned=1
%%%mzn-stat: AverageLearnedNogoodLength=14.99943143052081
%%%mzn-stat: AverageBacktrackAmount=0
%%%mzn-stat: AverageLbd=7.613183230990827
%%%mzn-stat: 2AutonomousSearchNumBackupCalled=161
%%%mzn-stat: 2AutonomousSearchNumPredicatesRemoved=0
%%%mzn-stat: 2AutonomousSearchNumCalls=162
%%%mzn-stat: 2AutonomousSearchNumPredicatesAdded=5817
%%%mzn-stat: 2AutonomousSearchAverageSizeOfHeap=18.35185185185185
%%%mzn-stat: 2AutonomousSearchNumAssignedPredicatesEncountered=2973
%%%mzn-stat-end
